solution status: gap limit reached
objective value:                          74110.45024
y#1                                                 1 	(obj:5700)
y#3                                                 1 	(obj:5700)
y#4                                                 1 	(obj:5700)
y#5                                                 1 	(obj:5700)
y#6                                                 1 	(obj:5700)
y#7                                                 1 	(obj:5700)
y#12                                                1 	(obj:5700)
y#14                                                1 	(obj:5700)
y#15                                                1 	(obj:5700)
y#16                                                1 	(obj:5700)
y#17                                                1 	(obj:5700)
y#19                                                1 	(obj:5700)
y#20                                                1 	(obj:5700)
x#1#16                                              1 	(obj:0.12478)
x#2#5                                               1 	(obj:0.00255)
x#3#1                                               1 	(obj:0.14671)
x#4#12                                              1 	(obj:0.0289)
x#5#6                                               1 	(obj:0.10999)
x#6#12                                              1 	(obj:0.00918)
x#7#3                                               1 	(obj:0.12291)
x#8#3                                               1 	(obj:0.09469)
x#9#7                                               1 	(obj:0.01666)
x#10#16                                             1 	(obj:0.0782)
x#11#20                                             1 	(obj:0.11883)
x#12#16                                             1 	(obj:0.01564)
x#13#6                                              1 	(obj:0.11866)
x#14#5                                              1 	(obj:0.12699)
x#15#12                                             1 	(obj:0.00799)
x#16#19                                             1 	(obj:0.10693)
x#17#17                                             1 	(obj:0.02006)
x#18#15                                             1 	(obj:0.00765)
x#19#4                                              1 	(obj:0.0153)
x#20#20                                             1 	(obj:0.14688)
x#21#6                                              1 	(obj:0.02312)
x#22#1                                              1 	(obj:0.10812)
x#23#19                                             1 	(obj:0.08755)
x#24#14                                             1 	(obj:0.04029)
x#25#17                                             1 	(obj:0.0119)
x#26#7                                              1 	(obj:0.07735)
x#27#14                                             1 	(obj:0.01445)
x#28#5                                              1 	(obj:0.06137)
x#29#17                                             1 	(obj:0.11509)
x#30#15                                             1 	(obj:0.0289)
x#31#16                                             1 	(obj:0.14382)
x#32#16                                             1 	(obj:0.01717)
x#33#12                                             1 	(obj:0.01292)
x#34#3                                              1 	(obj:0.06749)
x#35#14                                             1 	(obj:0.00187)
x#36#1                                              1 	(obj:0.01156)
x#37#7                                              1 	(obj:0.13872)
x#38#3                                              1 	(obj:0.07157)
x#39#7                                              1 	(obj:0.06069)
x#40#4                                              1 	(obj:0.15708)
x#41#16                                             1 	(obj:0.03927)
x#42#5                                              1 	(obj:0.03944)
x#43#20                                             1 	(obj:0.15589)
x#44#6                                              1 	(obj:0.13974)
x#45#17                                             1 	(obj:0.10115)
x#46#1                                              1 	(obj:0.08959)
x#47#4                                              1 	(obj:0.00986)
x#48#17                                             1 	(obj:0.04454)
x#49#12                                             1 	(obj:0.10846)
x#50#20                                             1 	(obj:0.08466)
x#51#15                                             1 	(obj:0.03213)
x#52#16                                             1 	(obj:0.11951)
x#53#5                                              1 	(obj:0.01564)
x#54#20                                             1 	(obj:0.09299)
x#55#6                                              1 	(obj:0.13124)
x#56#6                                              1 	(obj:0.00238)
x#57#5                                              1 	(obj:0.03332)
x#58#3                                              1 	(obj:0.14025)
x#59#5                                              1 	(obj:0.01649)
x#60#3                                              1 	(obj:0.04267)
x#61#4                                              1 	(obj:0.0544)
x#62#16                                             1 	(obj:0.02023)
x#63#3                                              1 	(obj:0.06613)
x#64#7                                              1 	(obj:0.04216)
x#65#14                                             1 	(obj:0.02057)
x#66#14                                             1 	(obj:0.10472)
x#67#1                                              1 	(obj:0.0204)
x#68#4                                              1 	(obj:0.00255)
x#69#17                                             1 	(obj:0.14994)
x#70#3                                              1 	(obj:0.08653)
x#71#14                                             1 	(obj:0.0153)
x#72#12                                             1 	(obj:0.04896)
x#73#19                                             1 	(obj:0.08772)
x#74#5                                              1 	(obj:0.07208)
x#75#4                                              1 	(obj:0.14824)
x#76#14                                             1 	(obj:0.0289)
x#77#1                                              1 	(obj:0.09112)
x#78#16                                             1 	(obj:0.11135)
x#79#14                                             1 	(obj:0.03298)
x#80#1                                              1 	(obj:0.00901)
x#81#14                                             1 	(obj:0.06477)
x#82#19                                             1 	(obj:0.0969)
x#83#16                                             1 	(obj:0.06222)
x#84#15                                             1 	(obj:0.09843)
x#85#20                                             1 	(obj:0.0425)
x#86#16                                             1 	(obj:0.09435)
x#87#12                                             1 	(obj:0.00952)
x#88#12                                             1 	(obj:0.14246)
x#89#1                                              1 	(obj:0.01547)
x#90#17                                             1 	(obj:0.19142)
x#91#4                                              1 	(obj:0.15045)
x#92#14                                             1 	(obj:0.00425)
x#93#1                                              1 	(obj:0.0068)
x#94#12                                             1 	(obj:0.0374)
x#95#12                                             1 	(obj:0.11628)
x#96#4                                              1 	(obj:0.09792)
x#97#7                                              1 	(obj:0.13277)
x#98#19                                             1 	(obj:0.15351)
x#99#4                                              1 	(obj:0.13549)
x#100#17                                            1 	(obj:0.05797)
x#101#15                                            1 	(obj:0.06647)
x#102#7                                             1 	(obj:0.09367)
x#103#14                                            1 	(obj:0.05406)
x#104#5                                             1 	(obj:0.01819)
x#105#15                                            1 	(obj:0.05083)
x#106#12                                            1 	(obj:0.01258)
x#107#6                                             1 	(obj:0.03213)
x#108#20                                            1 	(obj:0.13906)
x#109#6                                             1 	(obj:0.05423)
x#110#20                                            1 	(obj:0.03281)
x#111#3                                             1 	(obj:0.08347)
x#112#7                                             1 	(obj:0.03281)
x#113#19                                            1 	(obj:0.07633)
x#114#6                                             1 	(obj:0.05576)
x#115#7                                             1 	(obj:0.01377)
x#116#15                                            1 	(obj:0.00238)
x#117#17                                            1 	(obj:0.13651)
x#118#20                                            1 	(obj:0.03876)
x#119#17                                            1 	(obj:0.07973)
x#120#6                                             1 	(obj:0.07191)
x#121#5                                             1 	(obj:0.02397)
x#122#7                                             1 	(obj:0.03893)
x#123#16                                            1 	(obj:0.14144)
x#124#1                                             1 	(obj:0.00408)
x#125#15                                            1 	(obj:0.16507)
x#126#6                                             1 	(obj:0.01258)
x#127#7                                             1 	(obj:0.02465)
x#128#19                                            1 	(obj:0.11645)
x#129#4                                             1 	(obj:0.07786)
x#130#14                                            1 	(obj:0.03519)
x#131#20                                            1 	(obj:0.10013)
x#132#19                                            1 	(obj:0.20145)
x#133#15                                            1 	(obj:0.06256)
x#134#4                                             1 	(obj:0.04913)
x#135#3                                             1 	(obj:0.034)
x#136#12                                            1 	(obj:0.02312)
x#137#5                                             1 	(obj:0.10132)
x#138#3                                             1 	(obj:0.1462)
x#139#19                                            1 	(obj:0.18853)
x#140#15                                            1 	(obj:0.0187)
x#141#17                                            1 	(obj:0.04216)
x#142#15                                            1 	(obj:0.13209)
x#143#19                                            1 	(obj:0.01343)
x#144#19                                            1 	(obj:0.17612)
x#145#19                                            1 	(obj:0.02992)
x#146#1                                             1 	(obj:0.0272)
x#147#4                                             1 	(obj:0.01785)
x#148#17                                            1 	(obj:0.01122)
x#149#15                                            1 	(obj:0.11271)
x#150#19                                            1 	(obj:0.1428)
